HUN,8,6,114
1,25,4,28,2,23,5,29,3,21,0,22
2,25,3,28,4,22,5,25,0,29,1,22
4,30,5,29,1,22,2,30,0,28,3,28
0,25,2,24,4,24,5,25,1,27,3,30
4,21,5,26,1,27,3,23,0,23,2,29
1,21,3,29,0,23,5,27,4,25,2,25
3,29,2,25,1,26,0,29,5,21,4,23
4,27,1,28,5,27,0,22,2,26,3,28
